p edge 30 114 15
v 1 5
v 1 29
v 3 12 14 22
v 2 16 19
v 3 9 25 26
v 1 17
v 2 13 18
v 1 30
v 3 6 11 27
v 3 10 21 28
v 2 4 24
v 1 23
v 3 2 8 20
v 2 3 15
v 2 1 7
e 1 2
e 1 11
e 1 14
e 1 24
e 1 25
e 1 26
e 1 27
e 1 29
e 1 30
e 2 5
e 2 6
e 2 7
e 2 10
e 2 12
e 2 17
e 2 23
e 2 27
e 2 30
e 3 7
e 3 8
e 3 10
e 3 13
e 3 15
e 3 16
e 3 29
e 3 30
e 4 10
e 4 13
e 4 14
e 4 15
e 4 19
e 4 20
e 4 24
e 4 28
e 5 6
e 5 10
e 5 11
e 5 14
e 5 30
e 6 8
e 6 9
e 6 14
e 6 19
e 6 20
e 6 25
e 6 26
e 6 27
e 7 21
e 7 27
e 7 29
e 8 21
e 8 23
e 8 24
e 8 27
e 9 10
e 9 15
e 9 18
e 9 21
e 9 24
e 9 27
e 9 28
e 9 29
e 9 30
e 10 16
e 10 18
e 10 30
e 11 15
e 11 16
e 11 17
e 11 18
e 11 20
e 11 23
e 11 26
e 12 15
e 12 17
e 12 20
e 12 21
e 12 24
e 12 25
e 12 29
e 12 30
e 13 15
e 13 16
e 13 23
e 13 25
e 13 26
e 14 17
e 15 21
e 15 27
e 15 28
e 16 23
e 16 24
e 16 26
e 16 28
e 16 29
e 16 30
e 17 21
e 17 22
e 17 25
e 17 29
e 18 20
e 18 24
e 18 27
e 19 21
e 19 25
e 19 30
e 20 27
e 20 30
e 21 25
e 21 27
e 24 27
e 26 27
e 26 29
e 27 30
